NAME : Tallinn Long tour
COMMENT : O-Mopsi
TYPE : TSP
DIMENSION : 16
EDGE_WEIGHT_TYPE : HVS
NODE_COORD_SECTION
1 24.7646871 59.4358075
2 24.7453115 59.4369994
3 24.7393431 59.4357494
4 24.7202212 59.4375942
5 24.7391094 59.4362722
6 24.7408606 59.4351763
7 24.7412776 59.4347148
8 24.7391259 59.4370343
9 24.7421542 59.4359065
10 24.7964066 59.4362353
11 24.7549409 59.4365315
12 24.7900684 59.4377456
13 24.720000565714 59.437649149036
14 24.719792526956 59.438794032757
15 24.722711439812 59.435796832955
16 24.729231384546 59.440233456444
EOF